(set-option :produce-models true)
(declare-const query__base_size0 Int)
(declare-const query__base_size1 Int)
(declare-const query__base_size2 Int)
(declare-const query__base_stride0 Int)
(declare-const query__base_stride1 Int)
(declare-const query__base_stride2 Int)
(declare-const query__base_storage_offset Int)
(define-fun ge () Bool (>= query__base_size0 0))
(assert ge)
(define-fun ge_1 () Bool (>= query__base_size1 0))
(assert ge_1)
(define-fun ge_2 () Bool (>= query__base_size2 0))
(assert ge_2)
(define-fun eq () Bool (= query__base_size0 0))
(define-fun not_ () Bool (not eq))
(assert not_)
(define-fun sub () Int (- query__base_size0 1))
(define-fun mul () Int (* query__base_stride0 sub))
(define-fun add () Int (+ 1 mul))
(define-fun eq_1 () Bool (= query__base_size1 0))
(define-fun not__1 () Bool (not eq_1))
(assert not__1)
(define-fun sub_1 () Int (- query__base_size1 1))
(define-fun mul_1 () Int (* query__base_stride1 sub_1))
(define-fun add_1 () Int (+ add mul_1))
(define-fun eq_2 () Bool (= query__base_size2 0))
(define-fun not__2 () Bool (not eq_2))
(assert not__2)
(define-fun sub_2 () Int (- query__base_size2 1))
(define-fun mul_2 () Int (* query__base_stride2 sub_2))
(define-fun add_2 () Int (+ add_1 mul_2))
(define-fun mul_3 () Int (* 4 add_2))
(define-fun mul_4 () Int (* query__base_size0 query__base_size1))
(define-fun mul_5 () Int (* mul_4 query__base_size2))
(define-fun eq_3 () Bool (= mul_5 0))
(define-fun not__3 () Bool (not eq_3))
(assert not__3)
(define-fun eq_4 () Bool (= query__base_size2 1))
(define-fun not__4 () Bool (not eq_4))
(assert not__4)
(define-fun eq_5 () Bool (= query__base_stride2 1))
(assert eq_5)
(define-fun eq_6 () Bool (= query__base_size1 1))
(assert eq_6)
(define-fun eq_7 () Bool (= query__base_size0 1))
(define-fun not__5 () Bool (not eq_7))
(assert not__5)
(define-fun eq_8 () Bool (= query__base_stride0 query__base_size2))
(assert eq_8)
(define-fun mul_6 () Int (* query__base_size2 query__base_size0))
(define-fun ge_3 () Bool (>= query__base_storage_offset 0))
(assert ge_3)
(define-fun add_3 () Int (+ query__base_storage_offset add_2))
(define-fun mul_7 () Int (* 4 add_3))
(declare-const query_size0 Int)
(declare-const query_size1 Int)
(declare-const query_size2 Int)
(declare-const query_size3 Int)
(declare-const query_stride0 Int)
(declare-const query_stride1 Int)
(declare-const query_stride2 Int)
(declare-const query_stride3 Int)
(declare-const query_storage_offset Int)
(define-fun eq_9 () Bool (= query__base_size0 -1))
(define-fun not__6 () Bool (not eq_9))
(assert not__6)
(define-fun eq_10 () Bool (= query__base_size1 -1))
(define-fun not__7 () Bool (not eq_10))
(assert not__7)
(define-fun eq_11 () Bool (= query__base_size2 -1))
(define-fun not__8 () Bool (not eq_11))
(assert not__8)
(define-fun eq_12 () Bool (= mul_5 mul_5))
(assert eq_12)
(define-fun eq_13 () Bool (= query__base_size0 query__base_size0))
(assert eq_13)
(define-fun eq_14 () Bool (= query__base_size1 query__base_size1))
(assert eq_14)
(define-fun eq_15 () Bool (= query__base_size2 query__base_size2))
(assert eq_15)
(define-fun mul_8 () Int (* query_size0 query_size1))
(define-fun mul_9 () Int (* mul_8 query_size2))
(define-fun mul_10 () Int (* mul_9 query_size3))
(define-fun eq_16 () Bool (= mul_10 0))
(define-fun not__9 () Bool (not eq_16))
(assert not__9)
(define-fun eq_17 () Bool (= query_size3 1))
(define-fun not__10 () Bool (not eq_17))
(assert not__10)
(define-fun eq_18 () Bool (= query_stride3 1))
(assert eq_18)
(define-fun eq_19 () Bool (= query_size2 1))
(define-fun not__11 () Bool (not eq_19))
(assert not__11)
(define-fun eq_20 () Bool (= query_stride2 query_size3))
(assert eq_20)
(define-fun mul_11 () Int (* query_size3 query_size2))
(define-fun eq_21 () Bool (= query_size1 1))
(define-fun not__12 () Bool (not eq_21))
(assert not__12)
(define-fun eq_22 () Bool (= query_stride1 mul_11))
(assert eq_22)
(define-fun mul_12 () Int (* mul_11 query_size1))
(define-fun eq_23 () Bool (= query_size0 1))
(assert eq_23)
(define-fun eq_24 () Bool (= query_stride1 1))
(define-fun not__13 () Bool (not eq_24))
(assert not__13)
(define-fun eq_25 () Bool (= query_stride1 0))
(define-fun not__14 () Bool (not eq_25))
(assert not__14)
(define-fun eq_26 () Bool (= query_size1 0))
(define-fun not__15 () Bool (not eq_26))
(assert not__15)
(define-fun lt () Bool (< query_stride1 0))
(define-fun not__16 () Bool (not lt))
(assert not__16)
(define-fun gt () Bool (> query_size1 1))
(assert gt)
(define-fun mul_13 () Int (* query_stride1 query_size1))
(define-fun eq_27 () Bool (= query_size3 0))
(define-fun not__17 () Bool (not eq_27))
(assert not__17)
(define-fun lt_1 () Bool (< query_stride3 mul_13))
(assert lt_1)
(declare-const key__base_size0 Int)
(declare-const key__base_size1 Int)
(declare-const key__base_stride0 Int)
(declare-const key__base_stride1 Int)
(declare-const key__base_storage_offset Int)
(define-fun ge_4 () Bool (>= key__base_size0 0))
(assert ge_4)
(define-fun ge_5 () Bool (>= key__base_size1 0))
(assert ge_5)
(define-fun eq_28 () Bool (= key__base_size0 0))
(define-fun not__18 () Bool (not eq_28))
(assert not__18)
(define-fun sub_3 () Int (- key__base_size0 1))
(define-fun mul_14 () Int (* key__base_stride0 sub_3))
(define-fun add_4 () Int (+ 1 mul_14))
(define-fun eq_29 () Bool (= key__base_size1 0))
(define-fun not__19 () Bool (not eq_29))
(assert not__19)
(define-fun sub_4 () Int (- key__base_size1 1))
(define-fun mul_15 () Int (* key__base_stride1 sub_4))
(define-fun add_5 () Int (+ add_4 mul_15))
(define-fun mul_16 () Int (* 4 add_5))
(define-fun mul_17 () Int (* key__base_size0 key__base_size1))
(define-fun eq_30 () Bool (= mul_17 0))
(define-fun not__20 () Bool (not eq_30))
(assert not__20)
(define-fun eq_31 () Bool (= key__base_size1 1))
(define-fun not__21 () Bool (not eq_31))
(assert not__21)
(define-fun eq_32 () Bool (= key__base_stride1 1))
(assert eq_32)
(define-fun eq_33 () Bool (= key__base_size0 1))
(define-fun not__22 () Bool (not eq_33))
(assert not__22)
(define-fun eq_34 () Bool (= key__base_stride0 key__base_size1))
(assert eq_34)
(define-fun mul_18 () Int (* key__base_size1 key__base_size0))
(define-fun ge_6 () Bool (>= key__base_storage_offset 0))
(assert ge_6)
(define-fun add_6 () Int (+ key__base_storage_offset add_5))
(define-fun mul_19 () Int (* 4 add_6))
(declare-const key_size0 Int)
(declare-const key_size1 Int)
(declare-const key_size2 Int)
(declare-const key_size3 Int)
(declare-const key_stride0 Int)
(declare-const key_stride1 Int)
(declare-const key_stride2 Int)
(declare-const key_stride3 Int)
(declare-const key_storage_offset Int)
(define-fun eq_35 () Bool (= key__base_size0 -1))
(define-fun not__23 () Bool (not eq_35))
(assert not__23)
(define-fun eq_36 () Bool (= key__base_size1 -1))
(define-fun not__24 () Bool (not eq_36))
(assert not__24)
(define-fun eq_37 () Bool (= mul_17 mul_17))
(assert eq_37)
(define-fun eq_38 () Bool (= key__base_size0 key__base_size0))
(assert eq_38)
(define-fun eq_39 () Bool (= key__base_size1 key__base_size1))
(assert eq_39)
(define-fun mul_20 () Int (* key_size0 key_size1))
(define-fun mul_21 () Int (* mul_20 key_size2))
(define-fun mul_22 () Int (* mul_21 key_size3))
(define-fun eq_40 () Bool (= mul_22 0))
(define-fun not__25 () Bool (not eq_40))
(assert not__25)
(define-fun eq_41 () Bool (= key_size3 1))
(define-fun not__26 () Bool (not eq_41))
(assert not__26)
(define-fun eq_42 () Bool (= key_stride3 1))
(assert eq_42)
(define-fun eq_43 () Bool (= key_size2 1))
(define-fun not__27 () Bool (not eq_43))
(assert not__27)
(define-fun eq_44 () Bool (= key_stride2 key_size3))
(assert eq_44)
(define-fun mul_23 () Int (* key_size3 key_size2))
(define-fun eq_45 () Bool (= key_size1 1))
(define-fun not__28 () Bool (not eq_45))
(assert not__28)
(define-fun eq_46 () Bool (= key_stride1 mul_23))
(assert eq_46)
(define-fun mul_24 () Int (* mul_23 key_size1))
(define-fun eq_47 () Bool (= key_size0 1))
(assert eq_47)
(define-fun eq_48 () Bool (= key_stride1 1))
(define-fun not__29 () Bool (not eq_48))
(assert not__29)
(define-fun eq_49 () Bool (= key_stride1 0))
(define-fun not__30 () Bool (not eq_49))
(assert not__30)
(define-fun eq_50 () Bool (= key_size1 0))
(define-fun not__31 () Bool (not eq_50))
(assert not__31)
(define-fun lt_2 () Bool (< key_stride1 0))
(define-fun not__32 () Bool (not lt_2))
(assert not__32)
(define-fun gt_1 () Bool (> key_size1 1))
(assert gt_1)
(define-fun mul_25 () Int (* key_stride1 key_size1))
(define-fun eq_51 () Bool (= key_size3 0))
(define-fun not__33 () Bool (not eq_51))
(assert not__33)
(define-fun lt_3 () Bool (< key_stride3 mul_25))
(assert lt_3)
(define-fun mod () Int (mod query_size1 512))
(define-fun eq_52 () Bool (= mod 0))
(assert eq_52)
(define-fun eq_53 () Bool (= mul_7 0))
(define-fun not__34 () Bool (not eq_53))
(assert not__34)
(check-sat)
(get-model)
